LAMMPS (22 Jul 2025 - Update 1)
# 3D Lennard-Jones melt, ~32,000 atoms

variable x index 2
variable y index 2
variable z index 2

variable xx equal 20*$x
variable xx equal 20*2
variable yy equal 20*$y
variable yy equal 20*2
variable zz equal 20*$z
variable zz equal 20*2

units       lj
atom_style  atomic

lattice     fcc 0.8442
Lattice spacing in x,y,z = 1.6795962 1.6795962 1.6795962
region      box block 0 ${xx} 0 ${yy} 0 ${zz}
region      box block 0 40 0 ${yy} 0 ${zz}
region      box block 0 40 0 40 0 ${zz}
region      box block 0 40 0 40 0 40
create_box  1 box
Created orthogonal box = (0 0 0) to (67.183848 67.183848 67.183848)
  2 by 2 by 4 MPI processor grid
create_atoms 1 box
Created 256000 atoms
  using lattice units in orthogonal box = (0 0 0) to (67.183848 67.183848 67.183848)
  create_atoms CPU = 0.010 seconds
mass        1 1.0

velocity all create 1.44 87287 loop geom

pair_style lj/cut 2.5
pair_coeff 1 1 1.0 1.0 2.5

neighbor 0.3 bin
neigh_modify delay 0 every 20 check no

fix 1 all nve

thermo 10
thermo_style custom step atoms temp epair etotal press

run 100
Generated 0 of 0 mixed pair_coeff terms from geometric mixing rule
Neighbor list info ...
  update: every = 20 steps, delay = 0 steps, check = no
  max neighbors/atom: 2000, page size: 100000
  master list distance cutoff = 2.8
  ghost atom cutoff = 2.8
  binsize = 1.4, bins = 48 48 48
  1 neighbor lists, perpetual/occasional/extra = 1 0 0
  (1) pair lj/cut, perpetual
      attributes: half, newton on
      pair build: half/bin/atomonly/newton
      stencil: half/bin/3d
      bin: standard
Per MPI rank memory allocation (min/avg/max) = 7.804 | 7.852 | 7.893 Mbytes
   Step        Atoms         Temp          E_pair         TotEng         Press     
         0      256000   1.44          -6.7733681     -4.6133765     -5.019674     
        10      256000   1.1251673     -6.2997668     -4.6120226     -2.559151     
        20      256000   0.62659328    -5.5578374     -4.6179512      0.96588784   
        30      256000   0.74520194    -5.7385095     -4.620711       0.3368112    
        40      256000   0.73203046    -5.7192183     -4.6211769      0.37471297   
        50      256000   0.74174665    -5.7340059     -4.6213902      0.31707245   
        60      256000   0.75156571    -5.7488893     -4.6215451      0.25102147   
        70      256000   0.75492519    -5.7542005     -4.6218172      0.22498945   
        80      256000   0.75797166    -5.7589818     -4.6220288      0.20319006   
        90      256000   0.75963141    -5.7616378     -4.6221951      0.19096729   
       100      256000   0.75865617    -5.7603259     -4.6223461      0.19586104   
Loop time of 18.0111 on 16 procs for 100 steps with 256000 atoms

Performance: 2398.515 tau/day, 5.552 timesteps/s, 1.421 Matom-step/s
90.9% CPU use with 16 MPI tasks x no OpenMP threads

MPI task timing breakdown:
Section |  min time  |  avg time  |  max time  |%varavg| %total
---------------------------------------------------------------
Pair    | 1.9626     | 6.3097     | 11.021     | 169.9 | 35.03
Neigh   | 0.18304    | 0.38361    | 0.65109    |  31.4 |  2.13
Comm    | 3.3391     | 9.5114     | 15.395     | 184.8 | 52.81
Output  | 0.02392    | 0.13904    | 0.22092    |  21.5 |  0.77
Modify  | 0.061559   | 1.1624     | 2.3181     | 101.7 |  6.45
Other   |            | 0.505      |            |       |  2.80

Nlocal:          16000 ave       16061 max       15921 min
Histogram: 1 2 1 2 0 2 1 2 1 4
Nghost:        13621.4 ave       13696 max       13547 min
Histogram: 2 2 2 1 2 1 1 1 1 3
Neighs:         600871 ave      607339 max      595257 min
Histogram: 1 1 3 2 2 3 2 0 0 2

Total # of neighbors = 9613937
Ave neighs/atom = 37.554441
Neighbor list builds = 5
Dangerous builds not checked


Total wall time: 0:00:18
